set N := AA AB AC AD AE AF AG AH AI AJ AK AL AM AN AO AP AQ AR AS AT;

set T := AA AB AC AD AE AF AG AH AI AJ;

table	K={K}	u(K)	o(K)	o_(K):
	K	u	o	o_	:=
	1	20.00	AK	AL
	2	46.16	AM	AN
	3	31.65	AO	AP
	4	28.91	AQ	AR
	5	40.00	AS	AT
;

param c default 0 :=
AA	AB	1	180.40
AA	AB	2	226.55
AA	AB	3	221.58
AA	AB	4	235.40
AA	AB	5	210.27
AA	AC	1	122.18
AA	AC	2	153.44
AA	AC	3	150.07
AA	AC	4	159.43
AA	AC	5	142.41
AA	AD	1	86.40
AA	AD	2	108.50
AA	AD	3	106.12
AA	AD	4	112.73
AA	AD	5	100.70
AA	AE	1	244.37
AA	AE	2	306.88
AA	AE	3	300.15
AA	AE	4	318.86
AA	AE	5	284.82
AA	AF	1	51.84
AA	AF	2	65.10
AA	AF	3	63.67
AA	AF	4	67.64
AA	AF	5	60.42
AA	AG	1	210.92
AA	AG	2	264.87
AA	AG	3	259.07
AA	AG	4	275.22
AA	AG	5	245.84
AA	AH	1	902.00
AA	AH	2	1132.74
AA	AH	3	1107.90
AA	AH	4	1176.98
AA	AH	5	1051.34
AA	AI	1	819.63
AA	AI	2	1029.29
AA	AI	3	1006.72
AA	AI	4	1069.49
AA	AI	5	955.33
AA	AJ	1	930.52
AA	AJ	2	1168.55
AA	AJ	3	1142.92
AA	AJ	4	1214.19
AA	AJ	5	1084.58
AA	AK	1	214.37
AA	AK	2	269.20
AA	AK	3	263.30
AA	AK	4	279.72
AA	AK	5	249.86
AA	AL	1	422.21
AA	AL	2	530.21
AA	AL	3	518.59
AA	AL	4	550.92
AA	AL	5	492.11
AA	AM	1	307.24
AA	AM	2	385.83
AA	AM	3	377.37
AA	AM	4	400.90
AA	AM	5	358.11
AA	AN	1	124.71
AA	AN	2	156.61
AA	AN	3	153.17
AA	AN	4	162.72
AA	AN	5	145.35
AA	AO	1	428.55
AA	AO	2	538.18
AA	AO	3	526.38
AA	AO	4	559.20
AA	AO	5	499.50
AA	AP	1	658.22
AA	AP	2	826.59
AA	AP	3	808.46
AA	AP	4	858.87
AA	AP	5	767.19
AA	AQ	1	781.78
AA	AQ	2	981.76
AA	AQ	3	960.23
AA	AQ	4	1020.10
AA	AQ	5	911.21
AA	AR	1	771.53
AA	AR	2	968.89
AA	AR	3	947.65
AA	AR	4	1006.74
AA	AR	5	899.27
AA	AS	1	133.99
AA	AS	2	168.26
AA	AS	3	164.57
AA	AS	4	174.83
AA	AS	5	156.17
AA	AT	1	338.84
AA	AT	2	425.52
AA	AT	3	416.19
AA	AT	4	442.14
AA	AT	5	394.94
AB	AA	1	180.40
AB	AA	2	226.55
AB	AA	3	221.58
AB	AA	4	235.40
AB	AA	5	210.27
AB	AC	1	93.05
AB	AC	2	116.85
AB	AC	3	114.29
AB	AC	4	121.42
AB	AC	5	108.46
AB	AD	1	176.21
AB	AD	2	221.29
AB	AD	3	216.44
AB	AD	4	229.93
AB	AD	5	205.39
AB	AE	1	120.95
AB	AE	2	151.90
AB	AE	3	148.56
AB	AE	4	157.83
AB	AE	5	140.98
AB	AF	1	172.79
AB	AF	2	216.99
AB	AF	3	212.24
AB	AF	4	225.47
AB	AF	5	201.40
AB	AG	1	69.12
AB	AG	2	86.80
AB	AG	3	84.89
AB	AG	4	90.19
AB	AG	5	80.56
AB	AH	1	721.60
AB	AH	2	906.19
AB	AH	3	886.32
AB	AH	4	941.58
AB	AH	5	841.07
AB	AI	1	639.33
AB	AI	2	802.88
AB	AI	3	785.27
AB	AI	4	834.23
AB	AI	5	745.18
AB	AJ	1	751.00
AB	AJ	2	943.11
AB	AJ	3	922.43
AB	AJ	4	979.95
AB	AJ	5	875.34
AB	AK	1	189.65
AB	AK	2	238.16
AB	AK	3	232.94
AB	AK	4	247.47
AB	AK	5	221.05
AB	AL	1	262.87
AB	AL	2	330.12
AB	AL	3	322.88
AB	AL	4	343.01
AB	AL	5	306.40
AB	AM	1	158.84
AB	AM	2	199.47
AB	AM	3	195.10
AB	AM	4	207.26
AB	AM	5	185.14
AB	AN	1	68.85
AB	AN	2	86.46
AB	AN	3	84.57
AB	AN	4	89.84
AB	AN	5	80.25
AB	AO	1	257.08
AB	AO	2	322.84
AB	AO	3	315.77
AB	AO	4	335.45
AB	AO	5	299.65
AB	AP	1	485.67
AB	AP	2	609.91
AB	AP	3	596.53
AB	AP	4	633.73
AB	AP	5	566.08
AB	AQ	1	602.34
AB	AQ	2	756.42
AB	AQ	3	739.83
AB	AQ	4	785.96
AB	AQ	5	702.06
AB	AR	1	591.86
AB	AR	2	743.26
AB	AR	3	726.97
AB	AR	4	772.29
AB	AR	5	689.85
AB	AS	1	93.35
AB	AS	2	117.23
AB	AS	3	114.66
AB	AS	4	121.81
AB	AS	5	108.81
AB	AT	1	258.52
AB	AT	2	324.65
AB	AT	3	317.53
AB	AT	4	337.33
AB	AT	5	301.32
AC	AA	1	122.18
AC	AA	2	153.44
AC	AA	3	150.07
AC	AA	4	159.43
AC	AA	5	142.41
AC	AB	1	93.05
AC	AB	2	116.85
AC	AB	3	114.29
AC	AB	4	121.42
AC	AB	5	108.46
AC	AD	1	86.40
AC	AD	2	108.50
AC	AD	3	106.12
AC	AD	4	112.73
AC	AD	5	100.70
AC	AE	1	122.18
AC	AE	2	153.44
AC	AE	3	150.07
AC	AE	4	159.43
AC	AE	5	142.41
AC	AF	1	93.05
AC	AF	2	116.85
AC	AF	3	114.29
AC	AF	4	121.42
AC	AF	5	108.46
AC	AG	1	93.05
AC	AG	2	116.85
AC	AG	3	114.29
AC	AG	4	121.42
AC	AG	5	108.46
AC	AH	1	796.53
AC	AH	2	1000.29
AC	AH	3	978.36
AC	AH	4	1039.36
AC	AH	5	928.41
AC	AI	1	712.44
AC	AI	2	894.69
AC	AI	3	875.07
AC	AI	4	929.63
AC	AI	5	830.40
AC	AJ	1	819.63
AC	AJ	2	1029.29
AC	AJ	3	1006.72
AC	AJ	4	1069.49
AC	AJ	5	955.33
AC	AK	1	121.56
AC	AK	2	152.65
AC	AK	3	149.31
AC	AK	4	158.62
AC	AK	5	141.68
AC	AL	1	301.22
AC	AL	2	378.28
AC	AL	3	369.98
AC	AL	4	393.05
AC	AL	5	351.10
AC	AM	1	185.79
AC	AM	2	233.31
AC	AM	3	228.20
AC	AM	4	242.43
AC	AM	5	216.55
AC	AN	1	27.62
AC	AN	2	34.68
AC	AN	3	33.92
AC	AN	4	36.03
AC	AN	5	32.19
AC	AO	1	347.82
AC	AO	2	436.79
AC	AO	3	427.21
AC	AO	4	453.85
AC	AO	5	405.40
AC	AP	1	574.60
AC	AP	2	721.59
AC	AP	3	705.77
AC	AP	4	749.77
AC	AP	5	669.74
AC	AQ	1	683.21
AC	AQ	2	857.98
AC	AQ	3	839.17
AC	AQ	4	891.49
AC	AQ	5	796.33
AC	AR	1	661.57
AC	AR	2	830.80
AC	AR	3	812.58
AC	AR	4	863.25
AC	AR	5	771.10
AC	AS	1	12.54
AC	AS	2	15.75
AC	AS	3	15.40
AC	AS	4	16.37
AC	AS	5	14.62
AC	AT	1	228.44
AC	AT	2	286.88
AC	AT	3	280.59
AC	AT	4	298.08
AC	AT	5	266.26
AD	AA	1	86.40
AD	AA	2	108.50
AD	AA	3	106.12
AD	AA	4	112.73
AD	AA	5	100.70
AD	AB	1	176.21
AD	AB	2	221.29
AD	AB	3	216.44
AD	AB	4	229.93
AD	AB	5	205.39
AD	AC	1	86.40
AD	AC	2	108.50
AD	AC	3	106.12
AD	AC	4	112.73
AD	AC	5	100.70
AD	AE	1	193.19
AD	AE	2	242.61
AD	AE	3	237.29
AD	AE	4	252.08
AD	AE	5	225.17
AD	AF	1	34.56
AD	AF	2	43.40
AD	AF	3	42.45
AD	AF	4	45.09
AD	AF	5	40.28
AD	AG	1	176.21
AD	AG	2	221.29
AD	AG	3	216.44
AD	AG	4	229.93
AD	AG	5	205.39
AD	AH	1	881.07
AD	AH	2	1106.45
AD	AH	3	1082.19
AD	AH	4	1149.67
AD	AH	5	1026.95
AD	AI	1	796.53
AD	AI	2	1000.29
AD	AI	3	978.36
AD	AI	4	1039.36
AD	AI	5	928.41
AD	AJ	1	902.00
AD	AJ	2	1132.74
AD	AJ	3	1107.90
AD	AJ	4	1176.98
AD	AJ	5	1051.34
AD	AK	1	133.91
AD	AK	2	168.16
AD	AK	3	164.47
AD	AK	4	174.73
AD	AK	5	156.08
AD	AL	1	374.94
AD	AL	2	470.85
AD	AL	3	460.52
AD	AL	4	489.24
AD	AL	5	437.01
AD	AM	1	260.08
AD	AM	2	326.62
AD	AM	3	319.45
AD	AM	4	339.37
AD	AM	5	303.15
AD	AN	1	107.38
AD	AN	2	134.85
AD	AN	3	131.89
AD	AN	4	140.11
AD	AN	5	125.16
AD	AO	1	432.98
AD	AO	2	543.74
AD	AO	3	531.82
AD	AO	4	564.98
AD	AO	5	504.67
AD	AP	1	660.57
AD	AP	2	829.55
AD	AP	3	811.36
AD	AP	4	861.95
AD	AP	5	769.94
AD	AQ	1	769.21
AD	AQ	2	965.97
AD	AQ	3	944.79
AD	AQ	4	1003.70
AD	AQ	5	896.56
AD	AR	1	744.64
AD	AR	2	935.12
AD	AR	3	914.62
AD	AR	4	971.64
AD	AR	5	867.92
AD	AS	1	92.27
AD	AS	2	115.87
AD	AS	3	113.33
AD	AS	4	120.40
AD	AS	5	107.54
AD	AT	1	262.68
AD	AT	2	329.87
AD	AT	3	322.64
AD	AT	4	342.76
AD	AT	5	306.17
AE	AA	1	244.37
AE	AA	2	306.88
AE	AA	3	300.15
AE	AA	4	318.86
AE	AA	5	284.82
AE	AB	1	120.95
AE	AB	2	151.90
AE	AB	3	148.56
AE	AB	4	157.83
AE	AB	5	140.98
AE	AC	1	122.18
AE	AC	2	153.44
AE	AC	3	150.07
AE	AC	4	159.43
AE	AC	5	142.41
AE	AD	1	193.19
AE	AD	2	242.61
AE	AD	3	237.29
AE	AD	4	252.08
AE	AD	5	225.17
AE	AF	1	210.92
AE	AF	2	264.87
AE	AF	3	259.07
AE	AF	4	275.22
AE	AF	5	245.84
AE	AG	1	51.84
AE	AG	2	65.10
AE	AG	3	63.67
AE	AG	4	67.64
AE	AG	5	60.42
AE	AH	1	696.55
AE	AH	2	874.73
AE	AH	3	855.55
AE	AH	4	908.89
AE	AH	5	811.87
AE	AI	1	610.91
AE	AI	2	767.19
AE	AI	3	750.37
AE	AI	4	797.15
AE	AI	5	712.06
AE	AJ	1	712.44
AE	AJ	2	894.69
AE	AJ	3	875.07
AE	AJ	4	929.63
AE	AJ	5	830.40
AE	AK	1	116.00
AE	AK	2	145.68
AE	AK	3	142.48
AE	AK	4	151.37
AE	AK	5	135.21
AE	AL	1	181.84
AE	AL	2	228.36
AE	AL	3	223.35
AE	AL	4	237.28
AE	AL	5	211.95
AE	AM	1	67.05
AE	AM	2	84.20
AE	AM	3	82.35
AE	AM	4	87.49
AE	AM	5	78.15
AE	AN	1	125.82
AE	AN	2	158.01
AE	AN	3	154.54
AE	AN	4	164.18
AE	AN	5	146.65
AE	AO	1	296.91
AE	AO	2	372.86
AE	AO	3	364.68
AE	AO	4	387.42
AE	AO	5	346.06
AE	AP	1	506.90
AE	AP	2	636.57
AE	AP	3	622.61
AE	AP	4	661.43
AE	AP	5	590.82
AE	AQ	1	593.50
AE	AQ	2	745.31
AE	AQ	3	728.97
AE	AQ	4	774.42
AE	AQ	5	691.76
AE	AR	1	556.72
AE	AR	2	699.13
AE	AR	3	683.80
AE	AR	4	726.44
AE	AR	5	648.89
AE	AS	1	110.54
AE	AS	2	138.82
AE	AS	3	135.77
AE	AS	4	144.24
AE	AS	5	128.84
AE	AT	1	139.33
AE	AT	2	174.98
AE	AT	3	171.14
AE	AT	4	181.81
AE	AT	5	162.40
AF	AA	1	51.84
AF	AA	2	65.10
AF	AA	3	63.67
AF	AA	4	67.64
AF	AA	5	60.42
AF	AB	1	172.79
AF	AB	2	216.99
AF	AB	3	212.24
AF	AB	4	225.47
AF	AB	5	201.40
AF	AC	1	93.05
AF	AC	2	116.85
AF	AC	3	114.29
AF	AC	4	121.42
AF	AC	5	108.46
AF	AD	1	34.56
AF	AD	2	43.40
AF	AD	3	42.45
AF	AD	4	45.09
AF	AD	5	40.28
AF	AE	1	210.92
AF	AE	2	264.87
AF	AE	3	259.07
AF	AE	4	275.22
AF	AE	5	245.84
AF	AG	1	186.10
AF	AG	2	233.71
AF	AG	3	228.58
AF	AG	4	242.84
AF	AG	5	216.92
AF	AH	1	888.50
AF	AH	2	1115.78
AF	AH	3	1091.31
AF	AH	4	1159.36
AF	AH	5	1035.60
AF	AI	1	804.74
AF	AI	2	1010.59
AF	AI	3	988.43
AF	AI	4	1050.06
AF	AI	5	937.97
AF	AJ	1	912.53
AF	AJ	2	1145.96
AF	AJ	3	1120.84
AF	AJ	4	1190.72
AF	AJ	5	1063.62
AF	AK	1	165.37
AF	AK	2	207.68
AF	AK	3	203.12
AF	AK	4	215.79
AF	AK	5	192.75
AF	AL	1	392.25
AF	AL	2	492.59
AF	AL	3	481.79
AF	AL	4	511.83
AF	AL	5	457.19
AF	AM	1	276.68
AF	AM	2	347.46
AF	AM	3	339.84
AF	AM	4	361.03
AF	AM	5	322.49
AF	AN	1	106.52
AF	AN	2	133.77
AF	AN	3	130.84
AF	AN	4	139.00
AF	AN	5	124.16
AF	AO	1	429.13
AF	AO	2	538.91
AF	AO	3	527.09
AF	AO	4	559.96
AF	AO	5	500.18
AF	AP	1	658.27
AF	AP	2	826.66
AF	AP	3	808.53
AF	AP	4	858.95
AF	AP	5	767.26
AF	AQ	1	773.10
AF	AQ	2	970.86
AF	AQ	3	949.58
AF	AQ	4	1008.78
AF	AQ	5	901.10
AF	AR	1	754.33
AF	AR	2	947.28
AF	AR	3	926.51
AF	AR	4	984.28
AF	AR	5	879.21
AF	AS	1	102.46
AF	AS	2	128.67
AF	AS	3	125.85
AF	AS	4	133.69
AF	AS	5	119.42
AF	AT	1	292.46
AF	AT	2	367.28
AF	AT	3	359.22
AF	AT	4	381.62
AF	AT	5	340.88
AG	AA	1	210.92
AG	AA	2	264.87
AG	AA	3	259.07
AG	AA	4	275.22
AG	AA	5	245.84
AG	AB	1	69.12
AG	AB	2	86.80
AG	AB	3	84.89
AG	AB	4	90.19
AG	AB	5	80.56
AG	AC	1	93.05
AG	AC	2	116.85
AG	AC	3	114.29
AG	AC	4	121.42
AG	AC	5	108.46
AG	AD	1	176.21
AG	AD	2	221.29
AG	AD	3	216.44
AG	AD	4	229.93
AG	AD	5	205.39
AG	AE	1	51.84
AG	AE	2	65.10
AG	AE	3	63.67
AG	AE	4	67.64
AG	AE	5	60.42
AG	AF	1	186.10
AG	AF	2	233.71
AG	AF	3	228.58
AG	AF	4	242.84
AG	AF	5	216.92
AG	AH	1	704.86
AG	AH	2	885.16
AG	AH	3	865.75
AG	AH	4	919.74
AG	AH	5	821.56
AG	AI	1	620.37
AG	AI	2	779.06
AG	AI	3	761.98
AG	AI	4	809.49
AG	AI	5	723.08
AG	AJ	1	726.76
AG	AJ	2	912.66
AG	AJ	3	892.65
AG	AJ	4	948.31
AG	AJ	5	847.08
AG	AK	1	139.72
AG	AK	2	175.46
AG	AK	3	171.61
AG	AK	4	182.31
AG	AK	5	162.85
AG	AL	1	211.96
AG	AL	2	266.18
AG	AL	3	260.35
AG	AL	4	276.58
AG	AL	5	247.06
AG	AM	1	98.99
AG	AM	2	124.31
AG	AM	3	121.58
AG	AM	4	129.16
AG	AM	5	115.38
AG	AN	1	86.57
AG	AN	2	108.72
AG	AN	3	106.34
AG	AN	4	112.97
AG	AN	5	100.91
AG	AO	1	274.07
AG	AO	2	344.18
AG	AO	3	336.63
AG	AO	4	357.62
AG	AO	5	319.45
AG	AP	1	494.30
AG	AP	2	620.74
AG	AP	3	607.13
AG	AP	4	644.99
AG	AP	5	576.14
AG	AQ	1	594.29
AG	AQ	2	746.32
AG	AQ	3	729.95
AG	AQ	4	775.46
AG	AQ	5	692.69
AG	AR	1	568.90
AG	AR	2	714.43
AG	AR	3	698.77
AG	AR	4	742.34
AG	AR	5	663.09
AG	AS	1	84.46
AG	AS	2	106.07
AG	AS	3	103.74
AG	AS	4	110.21
AG	AS	5	98.45
AG	AT	1	190.14
AG	AT	2	238.78
AG	AT	3	233.54
AG	AT	4	248.11
AG	AT	5	221.62
AH	AA	1	902.00
AH	AA	2	1132.74
AH	AA	3	1107.90
AH	AA	4	1176.98
AH	AA	5	1051.34
AH	AB	1	721.60
AH	AB	2	906.19
AH	AB	3	886.32
AH	AB	4	941.58
AH	AB	5	841.07
AH	AC	1	796.53
AH	AC	2	1000.29
AH	AC	3	978.36
AH	AC	4	1039.36
AH	AC	5	928.41
AH	AD	1	881.07
AH	AD	2	1106.45
AH	AD	3	1082.19
AH	AD	4	1149.67
AH	AD	5	1026.95
AH	AE	1	696.55
AH	AE	2	874.73
AH	AE	3	855.55
AH	AE	4	908.89
AH	AE	5	811.87
AH	AF	1	888.50
AH	AF	2	1115.78
AH	AF	3	1091.31
AH	AF	4	1159.36
AH	AF	5	1035.60
AH	AG	1	704.86
AH	AG	2	885.16
AH	AG	3	865.75
AH	AG	4	919.74
AH	AG	5	821.56
AH	AI	1	86.40
AH	AI	2	108.50
AH	AI	3	106.12
AH	AI	4	112.73
AH	AI	5	100.70
AH	AJ	1	86.40
AH	AJ	2	108.50
AH	AJ	3	106.12
AH	AJ	4	112.73
AH	AJ	5	100.70
AH	AK	1	804.31
AH	AK	2	1010.05
AH	AK	3	987.91
AH	AK	4	1049.50
AH	AK	5	937.47
AH	AL	1	532.31
AH	AL	2	668.48
AH	AL	3	653.82
AH	AL	4	694.59
AH	AL	5	620.45
AH	AM	1	632.02
AH	AM	2	793.69
AH	AM	3	776.29
AH	AM	4	824.69
AH	AM	5	736.66
AH	AN	1	782.55
AH	AN	2	982.73
AH	AN	3	961.18
AH	AN	4	1021.11
AH	AN	5	912.11
AH	AO	1	496.71
AH	AO	2	623.76
AH	AO	3	610.09
AH	AO	4	648.13
AH	AO	5	578.94
AH	AP	1	311.89
AH	AP	2	391.67
AH	AP	3	383.08
AH	AP	4	406.97
AH	AP	5	363.53
AH	AQ	1	142.24
AH	AQ	2	178.62
AH	AQ	3	174.70
AH	AQ	4	185.60
AH	AQ	5	165.78
AH	AR	1	146.08
AH	AR	2	183.45
AH	AR	3	179.43
AH	AR	4	190.62
AH	AR	5	170.27
AH	AS	1	789.08
AH	AS	2	990.93
AH	AS	3	969.20
AH	AS	4	1029.63
AH	AS	5	919.72
AH	AT	1	725.12
AH	AT	2	910.61
AH	AT	3	890.64
AH	AT	4	946.17
AH	AT	5	845.17
AI	AA	1	819.63
AI	AA	2	1029.29
AI	AA	3	1006.72
AI	AA	4	1069.49
AI	AA	5	955.33
AI	AB	1	639.33
AI	AB	2	802.88
AI	AB	3	785.27
AI	AB	4	834.23
AI	AB	5	745.18
AI	AC	1	712.44
AI	AC	2	894.69
AI	AC	3	875.07
AI	AC	4	929.63
AI	AC	5	830.40
AI	AD	1	796.53
AI	AD	2	1000.29
AI	AD	3	978.36
AI	AD	4	1039.36
AI	AD	5	928.41
AI	AE	1	610.91
AI	AE	2	767.19
AI	AE	3	750.37
AI	AE	4	797.15
AI	AE	5	712.06
AI	AF	1	804.74
AI	AF	2	1010.59
AI	AF	3	988.43
AI	AF	4	1050.06
AI	AF	5	937.97
AI	AG	1	620.37
AI	AG	2	779.06
AI	AG	3	761.98
AI	AG	4	809.49
AI	AG	5	723.08
AI	AH	1	86.40
AI	AH	2	108.50
AI	AH	3	106.12
AI	AH	4	112.73
AI	AH	5	100.70
AI	AJ	1	122.18
AI	AJ	2	153.44
AI	AJ	3	150.07
AI	AJ	4	159.43
AI	AJ	5	142.41
AI	AK	1	718.13
AI	AK	2	901.83
AI	AK	3	882.06
AI	AK	4	937.05
AI	AK	5	837.03
AI	AL	1	445.92
AI	AL	2	559.99
AI	AL	3	547.71
AI	AL	4	581.86
AI	AL	5	519.75
AI	AM	1	546.09
AI	AM	2	685.78
AI	AM	3	670.75
AI	AM	4	712.57
AI	AM	5	636.51
AI	AN	1	699.14
AI	AN	2	877.98
AI	AN	3	858.73
AI	AN	4	912.27
AI	AN	5	814.89
AI	AO	1	422.91
AI	AO	2	531.10
AI	AO	3	519.45
AI	AO	4	551.84
AI	AO	5	492.93
AI	AP	1	262.88
AI	AP	2	330.12
AI	AP	3	322.88
AI	AP	4	343.02
AI	AP	5	306.40
AI	AQ	1	103.81
AI	AQ	2	130.37
AI	AQ	3	127.51
AI	AQ	4	135.46
AI	AQ	5	121.00
AI	AR	1	61.64
AI	AR	2	77.41
AI	AR	3	75.72
AI	AR	4	80.44
AI	AR	5	71.85
AI	AS	1	704.73
AI	AS	2	885.00
AI	AS	3	865.60
AI	AS	4	919.57
AI	AS	5	821.41
AI	AT	1	638.95
AI	AT	2	802.39
AI	AT	3	784.80
AI	AT	4	833.73
AI	AT	5	744.73
AJ	AA	1	930.52
AJ	AA	2	1168.55
AJ	AA	3	1142.92
AJ	AA	4	1214.19
AJ	AA	5	1084.58
AJ	AB	1	751.00
AJ	AB	2	943.11
AJ	AB	3	922.43
AJ	AB	4	979.95
AJ	AB	5	875.34
AJ	AC	1	819.63
AJ	AC	2	1029.29
AJ	AC	3	1006.72
AJ	AC	4	1069.49
AJ	AC	5	955.33
AJ	AD	1	902.00
AJ	AD	2	1132.74
AJ	AD	3	1107.90
AJ	AD	4	1176.98
AJ	AD	5	1051.34
AJ	AE	1	712.44
AJ	AE	2	894.69
AJ	AE	3	875.07
AJ	AE	4	929.63
AJ	AE	5	830.40
AJ	AF	1	912.53
AJ	AF	2	1145.96
AJ	AF	3	1120.84
AJ	AF	4	1190.72
AJ	AF	5	1063.62
AJ	AG	1	726.76
AJ	AG	2	912.66
AJ	AG	3	892.65
AJ	AG	4	948.31
AJ	AG	5	847.08
AJ	AH	1	86.40
AJ	AH	2	108.50
AJ	AH	3	106.12
AJ	AH	4	112.73
AJ	AH	5	100.70
AJ	AI	1	122.18
AJ	AI	2	153.44
AJ	AI	3	150.07
AJ	AI	4	159.43
AJ	AI	5	142.41
AJ	AK	1	814.66
AJ	AK	2	1023.06
AJ	AK	3	1000.63
AJ	AK	4	1063.02
AJ	AK	5	949.54
AJ	AL	1	538.94
AJ	AL	2	676.81
AJ	AL	3	661.97
AJ	AL	4	703.24
AJ	AL	5	628.17
AJ	AM	1	646.13
AJ	AM	2	811.41
AJ	AM	3	793.62
AJ	AM	4	843.10
AJ	AM	5	753.10
AJ	AN	1	808.18
AJ	AN	2	1014.91
AJ	AN	3	992.66
AJ	AN	4	1054.55
AJ	AN	5	941.98
AJ	AO	1	543.43
AJ	AO	2	682.44
AJ	AO	3	667.48
AJ	AO	4	709.10
AJ	AO	5	633.41
AJ	AP	1	381.01
AJ	AP	2	478.47
AJ	AP	3	467.98
AJ	AP	4	497.16
AJ	AP	5	444.09
AJ	AQ	1	213.36
AJ	AQ	2	267.94
AJ	AQ	3	262.06
AJ	AQ	4	278.40
AJ	AQ	5	248.68
AJ	AR	1	159.22
AJ	AR	2	199.95
AJ	AR	3	195.57
AJ	AR	4	207.76
AJ	AR	5	185.58
AJ	AS	1	811.17
AJ	AS	2	1018.67
AJ	AS	3	996.33
AJ	AS	4	1058.46
AJ	AS	5	945.47
AJ	AT	1	724.41
AJ	AT	2	909.72
AJ	AT	3	889.77
AJ	AT	4	945.25
AJ	AT	5	844.35
AK	AA	1	214.37
AK	AA	2	269.20
AK	AA	3	263.30
AK	AA	4	279.72
AK	AA	5	249.86
AK	AB	1	189.65
AK	AB	2	238.16
AK	AB	3	232.94
AK	AB	4	247.47
AK	AB	5	221.05
AK	AC	1	121.56
AK	AC	2	152.65
AK	AC	3	149.31
AK	AC	4	158.62
AK	AC	5	141.68
AK	AD	1	133.91
AK	AD	2	168.16
AK	AD	3	164.47
AK	AD	4	174.73
AK	AD	5	156.08
AK	AE	1	116.00
AK	AE	2	145.68
AK	AE	3	142.48
AK	AE	4	151.37
AK	AE	5	135.21
AK	AF	1	165.37
AK	AF	2	207.68
AK	AF	3	203.12
AK	AF	4	215.79
AK	AF	5	192.75
AK	AG	1	139.72
AK	AG	2	175.46
AK	AG	3	171.61
AK	AG	4	182.31
AK	AG	5	162.85
AK	AH	1	804.31
AK	AH	2	1010.05
AK	AH	3	987.91
AK	AH	4	1049.50
AK	AH	5	937.47
AK	AI	1	718.13
AK	AI	2	901.83
AK	AI	3	882.06
AK	AI	4	937.05
AK	AI	5	837.03
AK	AJ	1	814.66
AK	AJ	2	1023.06
AK	AJ	3	1000.63
AK	AJ	4	1063.02
AK	AJ	5	949.54
AL	AA	1	422.21
AL	AA	2	530.21
AL	AA	3	518.59
AL	AA	4	550.92
AL	AA	5	492.11
AL	AB	1	262.87
AL	AB	2	330.12
AL	AB	3	322.88
AL	AB	4	343.01
AL	AB	5	306.40
AL	AC	1	301.22
AL	AC	2	378.28
AL	AC	3	369.98
AL	AC	4	393.05
AL	AC	5	351.10
AL	AD	1	374.94
AL	AD	2	470.85
AL	AD	3	460.52
AL	AD	4	489.24
AL	AD	5	437.01
AL	AE	1	181.84
AL	AE	2	228.36
AL	AE	3	223.35
AL	AE	4	237.28
AL	AE	5	211.95
AL	AF	1	392.25
AL	AF	2	492.59
AL	AF	3	481.79
AL	AF	4	511.83
AL	AF	5	457.19
AL	AG	1	211.96
AL	AG	2	266.18
AL	AG	3	260.35
AL	AG	4	276.58
AL	AG	5	247.06
AL	AH	1	532.31
AL	AH	2	668.48
AL	AH	3	653.82
AL	AH	4	694.59
AL	AH	5	620.45
AL	AI	1	445.92
AL	AI	2	559.99
AL	AI	3	547.71
AL	AI	4	581.86
AL	AI	5	519.75
AL	AJ	1	538.94
AL	AJ	2	676.81
AL	AJ	3	661.97
AL	AJ	4	703.24
AL	AJ	5	628.17
AM	AA	1	307.24
AM	AA	2	385.83
AM	AA	3	377.37
AM	AA	4	400.90
AM	AA	5	358.11
AM	AB	1	158.84
AM	AB	2	199.47
AM	AB	3	195.10
AM	AB	4	207.26
AM	AB	5	185.14
AM	AC	1	185.79
AM	AC	2	233.31
AM	AC	3	228.20
AM	AC	4	242.43
AM	AC	5	216.55
AM	AD	1	260.08
AM	AD	2	326.62
AM	AD	3	319.45
AM	AD	4	339.37
AM	AD	5	303.15
AM	AE	1	67.05
AM	AE	2	84.20
AM	AE	3	82.35
AM	AE	4	87.49
AM	AE	5	78.15
AM	AF	1	276.68
AM	AF	2	347.46
AM	AF	3	339.84
AM	AF	4	361.03
AM	AF	5	322.49
AM	AG	1	98.99
AM	AG	2	124.31
AM	AG	3	121.58
AM	AG	4	129.16
AM	AG	5	115.38
AM	AH	1	632.02
AM	AH	2	793.69
AM	AH	3	776.29
AM	AH	4	824.69
AM	AH	5	736.66
AM	AI	1	546.09
AM	AI	2	685.78
AM	AI	3	670.75
AM	AI	4	712.57
AM	AI	5	636.51
AM	AJ	1	646.13
AM	AJ	2	811.41
AM	AJ	3	793.62
AM	AJ	4	843.10
AM	AJ	5	753.10
AN	AA	1	124.71
AN	AA	2	156.61
AN	AA	3	153.17
AN	AA	4	162.72
AN	AA	5	145.35
AN	AB	1	68.85
AN	AB	2	86.46
AN	AB	3	84.57
AN	AB	4	89.84
AN	AB	5	80.25
AN	AC	1	27.62
AN	AC	2	34.68
AN	AC	3	33.92
AN	AC	4	36.03
AN	AC	5	32.19
AN	AD	1	107.38
AN	AD	2	134.85
AN	AD	3	131.89
AN	AD	4	140.11
AN	AD	5	125.16
AN	AE	1	125.82
AN	AE	2	158.01
AN	AE	3	154.54
AN	AE	4	164.18
AN	AE	5	146.65
AN	AF	1	106.52
AN	AF	2	133.77
AN	AF	3	130.84
AN	AF	4	139.00
AN	AF	5	124.16
AN	AG	1	86.57
AN	AG	2	108.72
AN	AG	3	106.34
AN	AG	4	112.97
AN	AG	5	100.91
AN	AH	1	782.55
AN	AH	2	982.73
AN	AH	3	961.18
AN	AH	4	1021.11
AN	AH	5	912.11
AN	AI	1	699.14
AN	AI	2	877.98
AN	AI	3	858.73
AN	AI	4	912.27
AN	AI	5	814.89
AN	AJ	1	808.18
AN	AJ	2	1014.91
AN	AJ	3	992.66
AN	AJ	4	1054.55
AN	AJ	5	941.98
AO	AA	1	428.55
AO	AA	2	538.18
AO	AA	3	526.38
AO	AA	4	559.20
AO	AA	5	499.50
AO	AB	1	257.08
AO	AB	2	322.84
AO	AB	3	315.77
AO	AB	4	335.45
AO	AB	5	299.65
AO	AC	1	347.82
AO	AC	2	436.79
AO	AC	3	427.21
AO	AC	4	453.85
AO	AC	5	405.40
AO	AD	1	432.98
AO	AD	2	543.74
AO	AD	3	531.82
AO	AD	4	564.98
AO	AD	5	504.67
AO	AE	1	296.91
AO	AE	2	372.86
AO	AE	3	364.68
AO	AE	4	387.42
AO	AE	5	346.06
AO	AF	1	429.13
AO	AF	2	538.91
AO	AF	3	527.09
AO	AF	4	559.96
AO	AF	5	500.18
AO	AG	1	274.07
AO	AG	2	344.18
AO	AG	3	336.63
AO	AG	4	357.62
AO	AG	5	319.45
AO	AH	1	496.71
AO	AH	2	623.76
AO	AH	3	610.09
AO	AH	4	648.13
AO	AH	5	578.94
AO	AI	1	422.91
AO	AI	2	531.10
AO	AI	3	519.45
AO	AI	4	551.84
AO	AI	5	492.93
AO	AJ	1	543.43
AO	AJ	2	682.44
AO	AJ	3	667.48
AO	AJ	4	709.10
AO	AJ	5	633.41
AP	AA	1	658.22
AP	AA	2	826.59
AP	AA	3	808.46
AP	AA	4	858.87
AP	AA	5	767.19
AP	AB	1	485.67
AP	AB	2	609.91
AP	AB	3	596.53
AP	AB	4	633.73
AP	AB	5	566.08
AP	AC	1	574.60
AP	AC	2	721.59
AP	AC	3	705.77
AP	AC	4	749.77
AP	AC	5	669.74
AP	AD	1	660.57
AP	AD	2	829.55
AP	AD	3	811.36
AP	AD	4	861.95
AP	AD	5	769.94
AP	AE	1	506.90
AP	AE	2	636.57
AP	AE	3	622.61
AP	AE	4	661.43
AP	AE	5	590.82
AP	AF	1	658.27
AP	AF	2	826.66
AP	AF	3	808.53
AP	AF	4	858.95
AP	AF	5	767.26
AP	AG	1	494.30
AP	AG	2	620.74
AP	AG	3	607.13
AP	AG	4	644.99
AP	AG	5	576.14
AP	AH	1	311.89
AP	AH	2	391.67
AP	AH	3	383.08
AP	AH	4	406.97
AP	AH	5	363.53
AP	AI	1	262.88
AP	AI	2	330.12
AP	AI	3	322.88
AP	AI	4	343.02
AP	AI	5	306.40
AP	AJ	1	381.01
AP	AJ	2	478.47
AP	AJ	3	467.98
AP	AJ	4	497.16
AP	AJ	5	444.09
AQ	AA	1	781.78
AQ	AA	2	981.76
AQ	AA	3	960.23
AQ	AA	4	1020.10
AQ	AA	5	911.21
AQ	AB	1	602.34
AQ	AB	2	756.42
AQ	AB	3	739.83
AQ	AB	4	785.96
AQ	AB	5	702.06
AQ	AC	1	683.21
AQ	AC	2	857.98
AQ	AC	3	839.17
AQ	AC	4	891.49
AQ	AC	5	796.33
AQ	AD	1	769.21
AQ	AD	2	965.97
AQ	AD	3	944.79
AQ	AD	4	1003.70
AQ	AD	5	896.56
AQ	AE	1	593.50
AQ	AE	2	745.31
AQ	AE	3	728.97
AQ	AE	4	774.42
AQ	AE	5	691.76
AQ	AF	1	773.10
AQ	AF	2	970.86
AQ	AF	3	949.58
AQ	AF	4	1008.78
AQ	AF	5	901.10
AQ	AG	1	594.29
AQ	AG	2	746.32
AQ	AG	3	729.95
AQ	AG	4	775.46
AQ	AG	5	692.69
AQ	AH	1	142.24
AQ	AH	2	178.62
AQ	AH	3	174.70
AQ	AH	4	185.60
AQ	AH	5	165.78
AQ	AI	1	103.81
AQ	AI	2	130.37
AQ	AI	3	127.51
AQ	AI	4	135.46
AQ	AI	5	121.00
AQ	AJ	1	213.36
AQ	AJ	2	267.94
AQ	AJ	3	262.06
AQ	AJ	4	278.40
AQ	AJ	5	248.68
AR	AA	1	771.53
AR	AA	2	968.89
AR	AA	3	947.65
AR	AA	4	1006.74
AR	AA	5	899.27
AR	AB	1	591.86
AR	AB	2	743.26
AR	AB	3	726.97
AR	AB	4	772.29
AR	AB	5	689.85
AR	AC	1	661.57
AR	AC	2	830.80
AR	AC	3	812.58
AR	AC	4	863.25
AR	AC	5	771.10
AR	AD	1	744.64
AR	AD	2	935.12
AR	AD	3	914.62
AR	AD	4	971.64
AR	AD	5	867.92
AR	AE	1	556.72
AR	AE	2	699.13
AR	AE	3	683.80
AR	AE	4	726.44
AR	AE	5	648.89
AR	AF	1	754.33
AR	AF	2	947.28
AR	AF	3	926.51
AR	AF	4	984.28
AR	AF	5	879.21
AR	AG	1	568.90
AR	AG	2	714.43
AR	AG	3	698.77
AR	AG	4	742.34
AR	AG	5	663.09
AR	AH	1	146.08
AR	AH	2	183.45
AR	AH	3	179.43
AR	AH	4	190.62
AR	AH	5	170.27
AR	AI	1	61.64
AR	AI	2	77.41
AR	AI	3	75.72
AR	AI	4	80.44
AR	AI	5	71.85
AR	AJ	1	159.22
AR	AJ	2	199.95
AR	AJ	3	195.57
AR	AJ	4	207.76
AR	AJ	5	185.58
AS	AA	1	133.99
AS	AA	2	168.26
AS	AA	3	164.57
AS	AA	4	174.83
AS	AA	5	156.17
AS	AB	1	93.35
AS	AB	2	117.23
AS	AB	3	114.66
AS	AB	4	121.81
AS	AB	5	108.81
AS	AC	1	12.54
AS	AC	2	15.75
AS	AC	3	15.40
AS	AC	4	16.37
AS	AC	5	14.62
AS	AD	1	92.27
AS	AD	2	115.87
AS	AD	3	113.33
AS	AD	4	120.40
AS	AD	5	107.54
AS	AE	1	110.54
AS	AE	2	138.82
AS	AE	3	135.77
AS	AE	4	144.24
AS	AE	5	128.84
AS	AF	1	102.46
AS	AF	2	128.67
AS	AF	3	125.85
AS	AF	4	133.69
AS	AF	5	119.42
AS	AG	1	84.46
AS	AG	2	106.07
AS	AG	3	103.74
AS	AG	4	110.21
AS	AG	5	98.45
AS	AH	1	789.08
AS	AH	2	990.93
AS	AH	3	969.20
AS	AH	4	1029.63
AS	AH	5	919.72
AS	AI	1	704.73
AS	AI	2	885.00
AS	AI	3	865.60
AS	AI	4	919.57
AS	AI	5	821.41
AS	AJ	1	811.17
AS	AJ	2	1018.67
AS	AJ	3	996.33
AS	AJ	4	1058.46
AS	AJ	5	945.47
AT	AA	1	338.84
AT	AA	2	425.52
AT	AA	3	416.19
AT	AA	4	442.14
AT	AA	5	394.94
AT	AB	1	258.52
AT	AB	2	324.65
AT	AB	3	317.53
AT	AB	4	337.33
AT	AB	5	301.32
AT	AC	1	228.44
AT	AC	2	286.88
AT	AC	3	280.59
AT	AC	4	298.08
AT	AC	5	266.26
AT	AD	1	262.68
AT	AD	2	329.87
AT	AD	3	322.64
AT	AD	4	342.76
AT	AD	5	306.17
AT	AE	1	139.33
AT	AE	2	174.98
AT	AE	3	171.14
AT	AE	4	181.81
AT	AE	5	162.40
AT	AF	1	292.46
AT	AF	2	367.28
AT	AF	3	359.22
AT	AF	4	381.62
AT	AF	5	340.88
AT	AG	1	190.14
AT	AG	2	238.78
AT	AG	3	233.54
AT	AG	4	248.11
AT	AG	5	221.62
AT	AH	1	725.12
AT	AH	2	910.61
AT	AH	3	890.64
AT	AH	4	946.17
AT	AH	5	845.17
AT	AI	1	638.95
AT	AI	2	802.39
AT	AI	3	784.80
AT	AI	4	833.73
AT	AI	5	744.73
AT	AJ	1	724.41
AT	AJ	2	909.72
AT	AJ	3	889.77
AT	AJ	4	945.25
AT	AJ	5	844.35
;

table R={R}  q(R)  p(R)  d(R):
	R	q	p	d	:=
	1	20.0	AA	AF
	2	30.0	AB	AG
	3	40.0	AC	AH
	4	20.0	AD	AI
	5	20.0	AE	AJ
;

